SDVRP instances/p11/p11_1050_tsplib0_splitx10_0.vrp
NAME:.\SDVRP_splitx10_
BEST_KNOWN: 0
COMMENT: 0
DIMENSION: 561
CAPACITY: 2000
EDGE_WEIGHT_FORMAT: FUNCTION
EDGE_WEIGHT_TYPE: EXACT_2D
NODE_COORD_SECTION
1 0.00000 0.00000
2 15 -44
3 15 -44
4 15 -44
5 15 -44
6 15 -44
7 15 -44
8 15 -42
9 15 -42
10 15 -42
11 21 -40
12 21 -40
13 21 -40
14 21 -40
15 21 -40
16 21 -40
17 22 -40
18 22 -40
19 22 -40
20 22 -40
21 21 -38
22 21 -38
23 21 -38
24 21 -38
25 22 -36
26 22 -36
27 22 -36
28 22 -36
29 22 -36
30 22 -36
31 24 -36
32 24 -36
33 24 -36
34 24 -36
35 24 -36
36 24 -36
37 24 -36
38 36 -36
39 36 -36
40 36 -36
41 36 -36
42 36 -36
43 25 -38
44 25 -38
45 25 -38
46 25 -38
47 25 -38
48 24 -39
49 24 -39
50 25 -40
51 25 -40
52 25 -40
53 25 -40
54 37 -39
55 37 -39
56 37 -39
57 30 -40
58 30 -40
59 30 -40
60 30 -40
61 30 -40
62 30 -40
63 29 -42
64 29 -42
65 29 -42
66 26 -42
67 26 -42
68 26 -42
69 26 -42
70 26 -42
71 26 -42
72 63 -39
73 63 -39
74 63 -39
75 63 -37
76 63 -37
77 63 -37
78 63 -37
79 14 -9
80 14 -9
81 66 -39
82 66 -39
83 66 -39
84 66 -39
85 66 -39
86 66 -39
87 66 -35
88 66 -35
89 66 -35
90 66 -35
91 66 -32
92 66 -32
93 66 -32
94 66 -32
95 66 -32
96 68 -42
97 68 -42
98 68 -42
99 68 -36
100 68 -36
101 68 -36
102 68 -36
103 69 -42
104 69 -42
105 69 -42
106 69 -42
107 69 -42
108 69 -40
109 69 -40
110 69 -40
111 69 -40
112 69 -34
113 69 -34
114 69 -34
115 69 -34
116 69 -34
117 69 -34
118 69 -34
119 72 -42
120 72 -42
121 72 -38
122 72 -38
123 72 -38
124 80 -30
125 80 -30
126 80 -30
127 74 -42
128 74 -42
129 74 -42
130 74 -42
131 74 -42
132 74 -40
133 74 -40
134 74 -40
135 74 -40
136 74 -40
137 74 -40
138 74 -36
139 74 -36
140 74 -36
141 74 -36
142 75 -44
143 75 -44
144 75 -44
145 75 -44
146 75 -44
147 77 -40
148 77 -40
149 77 -40
150 77 -40
151 77 -40
152 77 -40
153 75 -37
154 75 -37
155 75 -37
156 75 -37
157 75 -37
158 75 -37
159 77 -38
160 77 -38
161 77 -38
162 77 -38
163 77 -38
164 77 -38
165 76 -4
166 76 -4
167 76 -4
168 76 -1
169 76 -1
170 76 -1
171 76 -1
172 76 -1
173 76 -1
174 76 1
175 76 1
176 76 1
177 76 1
178 76 1
179 76 1
180 75 10
181 75 10
182 75 10
183 75 10
184 75 10
185 79 -2
186 79 -2
187 79 -2
188 79 -2
189 79 -2
190 79 1
191 79 1
192 79 1
193 79 1
194 79 7
195 79 7
196 79 7
197 82 -3
198 82 -3
199 82 -3
200 82 -3
201 82 -3
202 82 7
203 82 7
204 82 7
205 84 -3
206 84 -3
207 84 -1
208 84 -1
209 84 -1
210 84 -1
211 84 -1
212 84 -1
213 84 -1
214 84 3
215 84 3
216 84 3
217 84 3
218 86 -3
219 86 -3
220 86 -3
221 86 -3
222 86 -3
223 86 -3
224 89 1
225 89 1
226 89 1
227 89 1
228 89 1
229 89 1
230 89 1
231 89 5
232 89 5
233 89 5
234 89 5
235 89 5
236 73 35
237 73 35
238 73 35
239 73 35
240 73 38
241 73 38
242 73 38
243 73 38
244 75 36
245 75 36
246 75 36
247 75 36
248 75 36
249 75 40
250 75 40
251 75 40
252 75 40
253 75 40
254 75 40
255 75 40
256 75 40
257 75 44
258 75 44
259 75 44
260 75 44
261 75 44
262 75 44
263 75 44
264 77 35
265 77 35
266 77 35
267 77 41
268 77 41
269 77 41
270 77 41
271 77 41
272 77 41
273 80 32
274 80 32
275 80 32
276 80 43
277 80 43
278 80 43
279 80 43
280 80 43
281 83 37
282 83 37
283 83 37
284 83 39
285 83 39
286 83 44
287 83 44
288 83 44
289 83 44
290 84 41
291 84 41
292 84 41
293 85 35
294 85 35
295 85 35
296 85 35
297 85 35
298 89 44
299 89 44
300 89 44
301 89 44
302 89 44
303 89 44
304 27 38
305 27 38
306 27 38
307 27 38
308 27 38
309 27 38
310 40 35
311 40 35
312 40 35
313 40 35
314 40 35
315 25 40
316 25 40
317 25 40
318 25 40
319 25 40
320 25 40
321 25 40
322 25 42
323 25 42
324 25 42
325 25 42
326 25 42
327 25 42
328 25 42
329 34 41
330 34 41
331 34 41
332 34 41
333 34 41
334 34 41
335 36 44
336 36 44
337 36 44
338 36 44
339 36 38
340 36 38
341 36 38
342 36 38
343 36 38
344 36 38
345 36 42
346 36 42
347 36 42
348 36 42
349 36 42
350 36 42
351 36 42
352 36 42
353 36 44
354 36 44
355 36 44
356 38 38
357 38 38
358 38 38
359 38 38
360 40 40
361 40 40
362 40 40
363 40 40
364 40 40
365 40 43
366 40 43
367 40 43
368 40 43
369 40 43
370 40 43
371 40 43
372 44 41
373 44 41
374 44 41
375 44 41
376 44 41
377 44 45
378 44 45
379 44 45
380 44 45
381 0 -10
382 0 -10
383 0 -10
384 0 -10
385 0 -5
386 0 -5
387 8 -15
388 8 -15
389 8 -15
390 8 -15
391 8 -15
392 7 -10
393 7 -10
394 7 -10
395 7 -10
396 6 -7
397 6 -7
398 6 -7
399 6 -7
400 6 -7
401 6 -7
402 6 -7
403 4 -5
404 4 -5
405 4 -5
406 5 -3
407 5 -3
408 5 -3
409 5 -3
410 5 -3
411 5 -3
412 5 -3
413 1 -3
414 1 -3
415 1 -3
416 1 -3
417 8 -5
418 8 -5
419 8 -5
420 8 -5
421 8 -5
422 8 -5
423 11 -6
424 11 -6
425 11 -6
426 11 -6
427 11 -6
428 11 -6
429 10 -5
430 10 -5
431 10 -5
432 10 -5
433 10 -5
434 8 -4
435 8 -4
436 8 -4
437 8 -4
438 8 -4
439 10 -1
440 10 -1
441 10 -1
442 10 -1
443 12 -1
444 12 -1
445 12 -1
446 12 -1
447 12 -1
448 12 -1
449 6 0
450 6 0
451 6 0
452 6 0
453 6 0
454 10 0
455 10 0
456 10 0
457 10 0
458 15 0
459 15 0
460 15 0
461 20 10
462 20 10
463 20 10
464 20 10
465 10 5
466 10 5
467 10 5
468 12 6
469 12 6
470 12 6
471 12 6
472 12 6
473 8 4
474 8 4
475 8 4
476 8 4
477 8 4
478 6 3
479 6 3
480 6 3
481 6 3
482 10 10
483 10 10
484 8 8
485 8 8
486 8 8
487 8 8
488 8 8
489 8 8
490 4 5
491 4 5
492 4 5
493 4 5
494 4 5
495 5 6
496 5 6
497 5 6
498 5 6
499 5 6
500 5 6
501 6 9
502 6 9
503 6 9
504 6 9
505 6 9
506 18 -12
507 18 -12
508 18 -12
509 18 -12
510 23 -7
511 23 -7
512 23 -7
513 23 -7
514 20 5
515 20 5
516 20 5
517 20 5
518 20 5
519 3 -5
520 3 -5
521 3 -5
522 3 -5
523 3 -5
524 5 -9
525 5 -9
526 5 -9
527 5 -9
528 5 -9
529 8 -14
530 8 -14
531 15 -8
532 15 -8
533 15 -8
534 20 1
535 20 1
536 20 1
537 20 1
538 20 1
539 20 1
540 15 7
541 15 7
542 15 7
543 6 -12
544 6 -12
545 6 -12
546 6 -12
547 6 -12
548 6 -12
549 15 -10
550 15 -10
551 15 -10
552 15 -10
553 15 -10
554 -5 -5
555 -5 -5
556 -5 -5
557 -5 5
558 -5 5
559 -5 5
560 -5 5
561 -5 5
DEMAND_SECTION
1 0
2 400
3 400
4 20
5 20
6 20
7 20
8 400
9 100
10 10
11 200
12 100
13 20
14 20
15 20
16 20
17 400
18 200
19 20
20 20
21 400
22 400
23 100
24 20
25 400
26 400
27 20
28 20
29 20
30 20
31 400
32 100
33 20
34 20
35 20
36 20
37 10
38 200
39 20
40 20
41 20
42 20
43 200
44 100
45 20
46 20
47 20
48 200
49 20
50 400
51 400
52 20
53 20
54 400
55 100
56 10
57 400
58 100
59 20
60 20
61 20
62 10
63 400
64 200
65 10
66 400
67 200
68 100
69 20
70 20
71 20
72 400
73 20
74 10
75 200
76 20
77 20
78 20
79 400
80 200
81 400
82 400
83 20
84 20
85 20
86 20
87 400
88 200
89 20
90 10
91 200
92 20
93 20
94 20
95 20
96 400
97 200
98 100
99 400
100 200
101 100
102 20
103 400
104 200
105 20
106 20
107 20
108 400
109 400
110 20
111 10
112 400
113 200
114 100
115 20
116 20
117 20
118 20
119 200
120 20
121 400
122 400
123 20
124 200
125 100
126 20
127 200
128 20
129 20
130 20
131 20
132 400
133 400
134 20
135 20
136 20
137 20
138 400
139 400
140 20
141 20
142 400
143 400
144 20
145 20
146 20
147 200
148 100
149 20
150 20
151 20
152 10
153 400
154 400
155 20
156 20
157 20
158 10
159 400
160 100
161 20
162 20
163 20
164 20
165 400
166 400
167 20
168 400
169 100
170 20
171 20
172 20
173 20
174 400
175 100
176 20
177 20
178 20
179 20
180 400
181 400
182 20
183 20
184 20
185 200
186 100
187 20
188 20
189 10
190 200
191 20
192 20
193 10
194 400
195 200
196 100
197 400
198 200
199 100
200 20
201 10
202 400
203 400
204 100
205 400
206 20
207 400
208 100
209 20
210 20
211 20
212 20
213 10
214 400
215 100
216 20
217 20
218 400
219 400
220 20
221 20
222 20
223 10
224 400
225 200
226 20
227 20
228 20
229 20
230 10
231 400
232 200
233 100
234 20
235 10
236 400
237 200
238 100
239 20
240 200
241 20
242 20
243 20
244 400
245 400
246 100
247 20
248 10
249 400
250 200
251 100
252 20
253 20
254 20
255 20
256 10
257 400
258 200
259 100
260 20
261 20
262 20
263 20
264 400
265 20
266 20
267 400
268 200
269 100
270 20
271 20
272 20
273 400
274 100
275 20
276 400
277 20
278 20
279 20
280 10
281 400
282 400
283 100
284 400
285 10
286 400
287 20
288 20
289 10
290 400
291 20
292 10
293 400
294 20
295 20
296 20
297 20
298 400
299 100
300 20
301 20
302 20
303 20
304 400
305 400
306 20
307 20
308 20
309 20
310 200
311 20
312 20
313 20
314 10
315 400
316 400
317 100
318 20
319 20
320 20
321 20
322 400
323 400
324 20
325 20
326 20
327 20
328 10
329 400
330 400
331 100
332 20
333 20
334 10
335 400
336 400
337 100
338 10
339 400
340 400
341 20
342 20
343 20
344 10
345 400
346 400
347 100
348 20
349 20
350 20
351 20
352 10
353 200
354 20
355 20
356 400
357 20
358 20
359 20
360 400
361 200
362 20
363 20
364 20
365 400
366 200
367 100
368 20
369 20
370 20
371 10
372 400
373 200
374 20
375 20
376 10
377 400
378 400
379 20
380 20
381 400
382 200
383 100
384 20
385 400
386 20
387 400
388 200
389 100
390 20
391 20
392 400
393 200
394 100
395 10
396 400
397 400
398 100
399 20
400 20
401 20
402 20
403 400
404 400
405 20
406 400
407 400
408 100
409 20
410 20
411 20
412 20
413 400
414 400
415 20
416 20
417 400
418 400
419 20
420 20
421 20
422 20
423 200
424 20
425 20
426 20
427 20
428 10
429 400
430 400
431 20
432 20
433 10
434 400
435 200
436 20
437 20
438 20
439 200
440 100
441 20
442 20
443 400
444 400
445 100
446 20
447 20
448 10
449 400
450 200
451 100
452 20
453 20
454 400
455 400
456 20
457 10
458 400
459 400
460 10
461 400
462 100
463 20
464 20
465 400
466 400
467 10
468 200
469 20
470 20
471 20
472 20
473 400
474 200
475 100
476 20
477 10
478 400
479 400
480 20
481 10
482 400
483 400
484 400
485 400
486 100
487 20
488 20
489 20
490 400
491 100
492 20
493 20
494 10
495 200
496 100
497 20
498 20
499 20
500 10
501 200
502 20
503 20
504 20
505 10
506 400
507 200
508 20
509 20
510 400
511 20
512 20
513 10
514 400
515 400
516 100
517 20
518 10
519 400
520 400
521 100
522 20
523 10
524 400
525 200
526 100
527 20
528 10
529 200
530 10
531 400
532 20
533 20
534 400
535 200
536 100
537 20
538 20
539 10
540 400
541 100
542 10
543 400
544 20
545 20
546 20
547 20
548 10
549 400
550 400
551 20
552 20
553 20
554 400
555 400
556 10
557 400
558 400
559 100
560 20
561 20
DEPOT_SECTION
1
-1
EOF