SDVRP instances/p11/p11_1050_tsplib0_splitx10_0.sol
560 -2 5 6 4 1 3 8 7 9 390 386 389 388 543 544 -10 13 12 15 14 11 17 18 19 16 21 22 20 23 -25 24 29 48 47 52 51 50 49 394 393 -26 28 69 70 67 65 68 66 62 63 64 31 35 30 32 33 36 34 -27 44 45 43 46 42 58 57 59 60 56 61 38 41 39 40 37 55 54 53 76 74 77 75 -73 72 71 83 80 136 131 150 146 147 149 148 151 163 123 125 124 -79 78 530 532 531 426 424 422 423 425 427 437 435 433 436 434 -85 82 84 81 118 119 129 126 130 144 143 145 142 141 96 -87 86 88 99 98 100 111 112 94 91 92 93 -89 101 122 120 121 132 133 134 135 128 127 159 160 158 162 161 156 157 154 140 139 -90 138 137 153 155 152 115 116 113 117 114 -97 95 104 105 102 103 106 110 108 107 109 -165 164 166 200 196 198 197 199 186 187 185 184 188 -172 170 169 171 167 168 176 174 178 177 173 175 189 191 190 192 193 195 -181 183 182 179 180 201 203 202 194 -204 205 221 222 218 220 219 217 211 206 210 208 212 207 209 -215 213 214 216 231 233 232 230 234 225 226 224 223 227 228 229 -236 238 237 235 243 247 246 244 263 264 265 -241 240 239 242 250 249 248 251 255 253 379 376 377 378 363 362 312 313 310 311 -245 281 280 282 296 295 294 293 292 274 272 273 -254 252 270 288 285 286 287 298 302 301 297 300 299 290 289 291 283 284 -258 262 259 257 261 256 260 276 277 275 279 278 266 268 267 271 269 -307 308 304 305 306 303 341 340 338 339 467 470 471 469 468 -309 375 372 373 374 371 360 361 359 356 358 355 357 486 488 -317 319 315 318 316 320 314 326 327 323 321 322 325 324 -329 333 331 330 332 328 353 337 354 335 336 347 350 345 -343 342 365 364 370 366 369 368 367 334 352 346 344 348 349 351 -384 385 381 382 380 383 413 415 412 414 -391 392 529 528 387 542 547 545 546 525 527 526 522 518 -402 401 395 396 398 399 397 400 524 523 -410 405 411 408 409 407 406 403 404 520 519 521 -419 421 417 418 420 416 428 431 432 429 430 -439 441 438 440 443 442 444 446 445 447 456 453 450 449 -451 452 448 478 480 477 491 492 493 489 490 -455 454 458 457 459 535 534 536 538 533 537 -479 473 476 474 475 472 466 464 465 495 497 494 499 496 498 -487 483 484 485 481 482 500 503 504 502 501 -509 511 510 512 507 508 506 505 551 552 549 550 548 -517 514 516 513 515 461 460 462 463 541 539 540 -553 554 555 559 558 557 556 560 0 





OBJ=
4309.681
BEST_KNOWN=
0.000